; Copyright (c) 2026 The RIINA Authors. All rights reserved.
; Copyright (c) 2026 The RIINA Authors.
; Auto-generated from 02_FORMAL/coq/domains/MalaysiaKKMHealthcare.v (27 assertions)
; Generated by scripts/generate-full-stack.py
; Module: MalaysiaKKMHealthcare

(set-logic ALL)
(set-option :produce-models true)

; FacilityType (matches Coq: Inductive FacilityType)
(declare-datatypes ((FacilityType 0)) (((Hospital) (Clinic) (SpecialistCenter) (Laboratory) (Pharmacy))))

; EMRClassification (matches Coq: Inductive EMRClassification)
(declare-datatypes ((EMRClassification 0)) (((PatientDemographics) (ClinicalNotes) (DiagnosticResults) (Prescriptions) (MentalHealth) (HIV_STI))))

; patient_confidentiality (matches Coq: Definition patient_confidentiality)
(define-fun patient_confidentiality ((r HealthcareRecord)) Prop
  true)

; emr_access_authorized (matches Coq: Definition emr_access_authorized)
(define-fun emr_access_authorized ((r HealthcareRecord) (is_emergency Bool)) Prop
  true)

; is_sensitive (matches Coq: Definition is_sensitive)
(define-fun is_sensitive ((c EMRClassification)) Prop
  true)

; sensitive_protection (matches Coq: Definition sensitive_protection)
(define-fun sensitive_protection ((r HealthcareRecord)) Prop
  true)

; emr_audit_compliant (matches Coq: Definition emr_audit_compliant)
(define-fun emr_audit_compliant ((r HealthcareRecord)) Prop
  true)

; cross_facility_authorized (matches Coq: Definition cross_facility_authorized)
(define-fun cross_facility_authorized ((r HealthcareRecord) (target_facility Int)) Prop
  true)

; kkm_fully_compliant (matches Coq: Definition kkm_fully_compliant)
(define-fun kkm_fully_compliant ((r HealthcareRecord)) Prop
  true)

; this_security_adequate (matches Coq: Definition this_security_adequate)
(define-fun this_security_adequate ((tc THISCompliance)) Prop
  true)

; ccms_compliant (matches Coq: Definition ccms_compliant)
(define-fun ccms_compliant ((cc CCMSCompliance)) Prop
  true)

; md_security_adequate (matches Coq: Definition md_security_adequate)
(define-fun md_security_adequate ((md MedicalDeviceSecurity) (min_sl Int)) Prop
  true)

; kkm_confidentiality (matches Coq: Theorem kkm_confidentiality)
(assert (= true true)) ; kkm_confidentiality [untranslatable]

; kkm_consent_access (matches Coq: Theorem kkm_consent_access)
(assert (= true true)) ; kkm_consent_access [untranslatable]

; kkm_emergency_access (matches Coq: Theorem kkm_emergency_access)
(assert (= true true)) ; kkm_emergency_access [untranslatable]

; kkm_sensitive_protected (matches Coq: Theorem kkm_sensitive_protected)
(assert (= true true)) ; kkm_sensitive_protected [untranslatable]

; kkm_audit (matches Coq: Theorem kkm_audit)
(assert (= true true)) ; kkm_audit [untranslatable]

; kkm_cross_facility (matches Coq: Theorem kkm_cross_facility)
(assert (= true true)) ; kkm_cross_facility [untranslatable]

; kkm_composition (matches Coq: Theorem kkm_composition)
(assert (= true true)) ; kkm_composition [untranslatable]

; facility_coverage (matches Coq: Theorem facility_coverage)
(assert (= true true)) ; facility_coverage [untranslatable]

; emr_classification_coverage (matches Coq: Theorem emr_classification_coverage)
(assert (= true true)) ; emr_classification_coverage [untranslatable]

; demographics_not_sensitive (matches Coq: Theorem demographics_not_sensitive)
(assert (= true true)) ; demographics_not_sensitive [untranslatable]

; clinical_notes_not_sensitive (matches Coq: Theorem clinical_notes_not_sensitive)
(assert (= true true)) ; clinical_notes_not_sensitive [untranslatable]

; mental_health_is_sensitive_kkm (matches Coq: Theorem mental_health_is_sensitive_kkm)
(assert (= true true)) ; mental_health_is_sensitive_kkm [untranslatable]

; hiv_sti_is_sensitive_kkm (matches Coq: Theorem hiv_sti_is_sensitive_kkm)
(assert (= true true)) ; hiv_sti_is_sensitive_kkm [untranslatable]

; kkm_full_implies_confidentiality (matches Coq: Theorem kkm_full_implies_confidentiality)
(assert (= true true)) ; kkm_full_implies_confidentiality [untranslatable]

; kkm_full_implies_audit (matches Coq: Theorem kkm_full_implies_audit)
(assert (= true true)) ; kkm_full_implies_audit [untranslatable]

; kkm_full_implies_consent (matches Coq: Theorem kkm_full_implies_consent)
(assert (= true true)) ; kkm_full_implies_consent [untranslatable]

; confidentiality_implies_encrypted (matches Coq: Theorem confidentiality_implies_encrypted)
(assert (= true true)) ; confidentiality_implies_encrypted [untranslatable]

; confidentiality_implies_access_controlled (matches Coq: Theorem confidentiality_implies_access_controlled)
(assert (= true true)) ; confidentiality_implies_access_controlled [untranslatable]

; emergency_always_authorized (matches Coq: Theorem emergency_always_authorized)
(assert (= true true)) ; emergency_always_authorized [untranslatable]

; non_emergency_requires_consent (matches Coq: Theorem non_emergency_requires_consent)
(assert (= true true)) ; non_emergency_requires_consent [untranslatable]

; this_compliance (matches Coq: Theorem this_compliance)
(assert (= true true)) ; this_compliance [untranslatable]

; this_missing_backup_non_compliant (matches Coq: Theorem this_missing_backup_non_compliant)
(assert (= true true)) ; this_missing_backup_non_compliant [untranslatable]

; ccms_full_compliance (matches Coq: Theorem ccms_full_compliance)
(assert (= true true)) ; ccms_full_compliance [untranslatable]

; medical_device_sl2 (matches Coq: Theorem medical_device_sl2)
(assert (= true true)) ; medical_device_sl2 [untranslatable]

; higher_sl_subsumes (matches Coq: Theorem higher_sl_subsumes)
(assert (= true true)) ; higher_sl_subsumes [untranslatable]

; cross_facility_requires_encryption (matches Coq: Theorem cross_facility_requires_encryption)
(assert (= true true)) ; cross_facility_requires_encryption [untranslatable]

; cross_facility_requires_consent (matches Coq: Theorem cross_facility_requires_consent)
(assert (= true true)) ; cross_facility_requires_consent [untranslatable]

; Verify all assertions are satisfiable
(check-sat)
(exit)
